n_potions = 66;
alchemy = [5, 4, 1, 2, 2, 5, 3, 3, 1, 3, 2, 1, 2, 3, 5, 1, 5, 5, 3, 4, 2, 4, 3, 4, 2, 1, 5, 3, 1, 3, 3, 3, 5, 1, 1, 3, 5, 1, 5, 4, 4, 4, 2, 1, 5, 5, 1, 1, 3, 5, 4, 2, 5, 5, 5, 2, 5, 3, 1, 4, 1, 2, 3, 1, 4, 2];
n_days = 12;
min_potions = 5;
max_potions = 7;
min_alchemists = 5;
max_alchemists = 35;
prereqs = [|7,1
|10,5
|11,5
|11,6
|12,7
|13,8
|13,11
|16,9
|17,10
|17,11
|18,10
|18,11
|19,11
|20,9
|21,10
|23,17
|23,18
|24,19
|26,13
|26,23
|30,9
|32,9
|33,27
|34,17
|35,9
|35,17
|35,18
|37,20
|37,30
|37,35
|39,35
|41,9
|41,18
|45,38
|46,37
|48,35
|49,30
|49,32
|50,43
|53,47
|54,50
|55,43
|55,38
|56,51
|57,39
|57,34
|59,55
|61,55
|62,31
|63,48
|];
